benchmarks_vrp/CMT4/fixed_c/CMT4_6.vrp
NAME: CMT4_6
TYPE: CVRP
COMMENT: 1028.42 - Cluster Nr.6
DIMENSION: 14
CAPACITY: 200
EDGE_WEIGHT_TYPE: EUC_2D
NODE_COORD_TYPE: TWOD_COORDS
NODE_COORD_SECTION: 
12 35 40
2 37 47
9 38 46
10 26 35
13 30 48
5 40 30
11 37 31
6 42 41
14 31 32
8 41 49
1 27 43
3 35 35
4 32 39
7 41 37
DEPOT_SECTION: 
3
-1
DEMAND_SECTION: 
2 6
13 15
1 9
3 0
4 5
11 14
9 12
5 21
14 29
6 19
12 16
8 10
10 15
7 16
EOF
