benchmarks_vrp/CMT4/fixed_c/CMT4_6.tour
NAME: CMT4_6 solution
TYPE: TOUR
TOUR_SECTION:
3 11 5 7 6 8 9 2 13 1 10 14 4 12 -1
-1
EOF